NAME: test1764
TYPE: TSP
DIMENSION: 11
EDGE_WEIGHT_TYPE: EUC_2D
NODE_COORD_SECTION
1 54.474693632843504 87.59300772475103
2 37.91093830540011 91.29876867422695
3 0.48593710792161904 58.732702918980294
4 40.734870017040606 83.51974598598598
5 39.32438912177636 42.74870255733124
6 39.63969598944511 9.969913575561684
7 63.41489430392545 90.52791415521737
8 73.70789432531721 79.89949515649306
9 12.049938285389505 84.54823181022778
10 63.752257819409564 93.19746456428291
11 96.16329146791244 23.052912009390212
EOF
